DIMENSION :13
NODE_COORD_SECTION
1 79.34631102993873 -43.50468837997741
2 -41.74676451010249 -69.93207983120386
3 -84.13790299787442 -79.73432406939554
4 48.63999764497541 25.96139269103388
5 60.06535085559241 24.908205443353083
6 -51.63493292748071 99.13528353567676
7 -98.67943578561163 -7.32165337585036
8 -92.94590566523475 -49.55072141287378
9 -55.66302318500145 76.74421294298205
10 53.07453111741714 58.5398844700853
11 9.320323938085721 -47.00172292504525
12 59.18082976902693 11.77849348742383
13 -12.356943478240751 68.7562914666282
EOF
